NAME: kroA200
COMMENT: Local search tour for kroA200 (33520.09858630836)
TYPE: TOUR
DIMENSION: 200
TOUR_SECTION: 1 132 85 145 191 27 198 123 15 13 79 160 162 64 20 55 42 135 186 127 112 120 47 31 67 177 65 80 77 158 193 128 60 101 4 163 93 106 149 190 18 49 12 147 40 46 172 136 61 29 110 184 37 179 153 66 119 19 99 92 10 175 36 57 74 14 192 108 167 30 68 169 35 2 181 125 161 151 187 157 107 109 6 54 75 155 183 22 134 8 17 25 143 90 34 103 146 129 114 98 58 141 171 200 88 148 28 38 71 39 130 72 83 62 185 168 173 23 144 150 91 95 50 139 86 196 56 152 178 5 105 43 137 133 176 113 195 182 94 76 70 102 164 140 21 154 89 41 59 3 73 189 69 142 131 180 156 100 33 45 197 81 97 104 165 166 96 126 87 52 11 84 48 170 122 116 188 44 63 194 51 16 118 124 138 9 78 82 7 199 26 32 24 159 174 121 111 117 115 53 -1
EOF